S4-4.dat
Tried aggregator 1 time.
MIP Presolve eliminated 143040 rows and 143041 columns.
MIP Presolve modified 11920 coefficients.
Reduced MIP has 226500 rows, 154960 columns, and 895192 nonzeros.
Reduced MIP has 77480 binaries, 71520 generals, 0 SOSs, and 0 indicators.
Presolve time = 0.83 sec. (495.64 ticks)
Found incumbent of value 3.0944000e+011 after 22.20 sec. (9144.78 ticks)
Probing time = 3.22 sec. (21.84 ticks)
Tried aggregator 1 time.
Reduced MIP has 226500 rows, 154960 columns, and 895192 nonzeros.
Reduced MIP has 77480 binaries, 71520 generals, 0 SOSs, and 0 indicators.
Presolve time = 0.72 sec. (363.95 ticks)
Probing time = 2.74 sec. (23.93 ticks)
Clique table members: 54832.
MIP emphasis: balance optimality and feasibility.
MIP search method: dynamic search.
Parallel mode: deterministic, using up to 32 threads.
Root relaxation solution time = 34.22 sec. (3122.74 ticks)

        Nodes                                         Cuts/
   Node  Left     Objective  IInf  Best Integer    Best Bound    ItCnt     Gap

*     0+    0                      3.09440e+011        0.0000           100.00%
      0     0        0.0000  2645  3.09440e+011        0.0000       12  100.00%
      0     0        0.0000  2868  3.09440e+011     Cuts: 924     3860  100.00%
      0     0        0.0000  3132  3.09440e+011    Cuts: 1545     8262  100.00%
*     0+    0                      8.58900e+010        0.0000           100.00%
*     0+    0                      6.54261e+010        0.0000           100.00%
Elapsed time for symmetry detection = 92.36 sec. (10000.02 ticks)
Found 4.217782e+2997 symmetric permutations.
      0     2        0.0000  2306  6.54261e+010        0.0000     8262  100.00%
Elapsed time = 330.16 sec. (70785.11 ticks, tree = 0.00 MB, solutions = 3)
      2     4        0.0000  2485  6.54261e+010        0.0000    11117  100.00%
      3     5  5.20000e+007  2486  6.54261e+010        0.0000    11127  100.00%
      4     6  4.50000e+007  2647  6.54261e+010        0.0000    14759  100.00%
      9    11  4.50000e+007  2729  6.54261e+010        0.0000    20447  100.00%
     11    13  4.50000e+007  3097  6.54261e+010        0.0000    23426  100.00%
     13    15  9.70000e+007  3112  6.54261e+010        0.0000    33804  100.00%
     14    16  7.50000e+007  3203  6.54261e+010        0.0000    38443  100.00%
     17    19  1.49000e+008  3080  6.54261e+010        0.0000    52588  100.00%
     25    27        0.0000  3261  6.54261e+010        0.0000    64975  100.00%
     33    35  1.67000e+008  3172  6.54261e+010        0.0000    93822  100.00%
Elapsed time = 374.25 sec. (90272.20 ticks, tree = 0.00 MB, solutions = 3)
     37    39  1.67000e+008  3171  6.54261e+010        0.0000    98846  100.00%
     42    44        0.0000  3272  6.54261e+010        0.0000   101506  100.00%
     53    55  2.01000e+008  3192  6.54261e+010        0.0000   134522  100.00%
     71    73        0.0000  3223  6.54261e+010        0.0000   160100  100.00%
     74    76  7.50000e+007  3351  6.54261e+010        0.0000   163208  100.00%
     89    91  2.02000e+008  3019  6.54261e+010        0.0000   195071  100.00%
    101   103  3.24000e+008  3164  6.54261e+010        0.0000   213132  100.00%
    218   220  1.89000e+008  3427  6.54261e+010        0.0000   295972  100.00%
    229   231  3.24000e+008  3516  6.54261e+010        0.0000   310863  100.00%
    236   238  2.46000e+008  2989  6.54261e+010        0.0000   311112  100.00%
Elapsed time = 538.84 sec. (111673.00 ticks, tree = 0.00 MB, solutions = 3)
    390   392  4.50000e+007  3951  6.54261e+010        0.0000   487084  100.00%
    408   410  2.24000e+008  3415  6.54261e+010        0.0000   507627  100.00%
    440   442  1.89000e+008  3582  6.54261e+010        0.0000   553264  100.00%
    585   587  1.55000e+008  3621  6.54261e+010        0.0000   620914  100.00%
    654   656  3.28000e+008  3612  6.54261e+010        0.0000   664878  100.00%
    686   688  2.98000e+008  3859  6.54261e+010        0.0000   701686  100.00%
   1020  1022  5.88000e+008  3647  6.54261e+010        0.0000   896128  100.00%
   2065  2067  5.14000e+008  3694  6.54261e+010        0.0000   965587  100.00%
   2161  2163  5.54000e+008  3188  6.54261e+010        0.0000   968532  100.00%
   2207  2209  2.01000e+008  3495  6.54261e+010        0.0000   970011  100.00%
Elapsed time = 905.99 sec. (149966.15 ticks, tree = 12.49 MB, solutions = 3)
   2972  2974  3.24000e+008  3609  6.54261e+010        0.0000  1008100  100.00%
   3210  3212  2.88000e+008  3447  6.54261e+010        0.0000  1050338  100.00%
   3568  3570  8.53000e+008  3709  6.54261e+010        0.0000  1073423  100.00%
   3664  3666  8.93000e+008  3653  6.54261e+010        0.0000  1096682  100.00%
   3728  3730  9.38000e+008  3722  6.54261e+010        0.0000  1115548  100.00%
   3792  3794  9.83000e+008  3523  6.54261e+010        0.0000  1135981  100.00%
   3888  3890  1.02800e+009  2977  6.54261e+010        0.0000  1156898  100.00%
   3952  3954  1.02800e+009  3848  6.54261e+010        0.0000  1177979  100.00%
   4087  4088  7.75000e+008  3055  6.54261e+010        0.0000  1213888  100.00%
   4112  4113  1.07300e+009  3757  6.54261e+010        0.0000  1230578  100.00%
Elapsed time = 1021.33 sec. (168033.12 ticks, tree = 79.28 MB, solutions = 3)
   4144  4145  1.11800e+009  3138  6.54261e+010        0.0000  1235958  100.00%
   4176  4177  1.11800e+009  3776  6.54261e+010        0.0000  1252034  100.00%
   4336  4337  1.16300e+009  3103  6.54261e+010        0.0000  1288972  100.00%
   4350  4351  8.85000e+008  3416  6.54261e+010        0.0000  1298904  100.00%
   4432  4433  1.16300e+009  3289  6.54261e+010        0.0000  1320347  100.00%
   4496  4497  1.16300e+009  3232  6.54261e+010        0.0000  1336218  100.00%
   6064  6061  8.19000e+008  3131  6.54261e+010        0.0000  1635981  100.00%
   6160  6157  8.19000e+008  3533  6.54261e+010        0.0000  1647068  100.00%
   6224  6221  8.59000e+008  3744  6.54261e+010        0.0000  1676480  100.00%
   6282  6279  8.15000e+008  2983  6.54261e+010        0.0000  1694888  100.00%
Elapsed time = 1163.50 sec. (182053.61 ticks, tree = 209.76 MB, solutions = 3)
   6346  6343  8.15000e+008  2990  6.54261e+010        0.0000  1716789  100.00%
   6384  6381  9.49000e+008  3112  6.54261e+010        0.0000  1733399  100.00%
   6442  6439  8.15000e+008  2994  6.54261e+010        0.0000  1762516  100.00%
   6474  6471  8.15000e+008  3823  6.54261e+010        0.0000  1782251  100.00%
   6570  6567  8.60000e+008  3074  6.54261e+010        0.0000  1815956  100.00%
   6666  6663  8.60000e+008  3010  6.54261e+010        0.0000  1850950  100.00%
   6762  6759  9.05000e+008  3084  6.54261e+010        0.0000  1893205  100.00%
   6858  6853  9.50000e+008  2986  6.54261e+010        0.0000  1925690  100.00%
   6890  6885  9.45000e+008  4103  6.54261e+010        0.0000  2032457  100.00%
*  7122+ 7115                      6.24253e+010        0.0000           100.00%
*  7122+ 7115                      6.23051e+010        0.0000           100.00%
*  7122+ 7115                      6.21508e+010        0.0000           100.00%
*  7122+ 7115                      6.20991e+010        0.0000           100.00%
*  7122+ 7115                      6.20544e+010        0.0000           100.00%
*  7122+ 7115                      6.20366e+010        0.0000           100.00%
*  7122+ 7115                      6.20236e+010        0.0000           100.00%
*  7122+ 7115                      6.20050e+010        0.0000           100.00%
*  7122+ 7115                      6.19990e+010        0.0000           100.00%
*  7122+ 7115                      6.19366e+010        0.0000           100.00%
*  7122+ 7115                      6.19139e+010        0.0000           100.00%
*  7122+ 7115                      6.18395e+010        0.0000           100.00%
*  7122+ 7115                      6.17830e+010        0.0000           100.00%
*  7122+ 7115                      6.16487e+010        0.0000           100.00%
*  7122+ 7115                      6.16368e+010        0.0000           100.00%
*  7122+ 7115                      6.15844e+010        0.0000           100.00%
*  7122+ 7115                      6.13710e+010        0.0000           100.00%
*  7122+ 7115                      6.13332e+010        0.0000           100.00%
*  7122+ 7115                      6.13210e+010        0.0000           100.00%
*  7122+ 7115                      6.13042e+010        0.0000           100.00%
*  7122+ 7115                      6.12987e+010        0.0000           100.00%
*  7122+ 7115                      6.12797e+010        0.0000           100.00%
*  7122+ 7115                      6.12756e+010        0.0000           100.00%
*  7122+ 7115                      6.12568e+010        0.0000           100.00%
*  7122+ 7115                      6.12268e+010        0.0000           100.00%
*  7122+ 7115                      6.12173e+010        0.0000           100.00%
*  7122+ 7115                      6.12061e+010        0.0000           100.00%
   7122  7117        0.0000  2262  6.12061e+010        0.0000  2099347  100.00%
Elapsed time = 5179.45 sec. (283493.00 ticks, tree = 1190.70 MB, solutions = 3)
   7123  7118  9.00000e+007  2432  6.12061e+010        0.0000  2099371  100.00%
*  7124+ 7117                      6.10894e+010        0.0000           100.00%
*  7124+ 7117                      6.10554e+010        0.0000           100.00%
*  7124+ 7117                      6.10193e+010        0.0000           100.00%
*  7124+ 7117                      6.10132e+010        0.0000           100.00%
*  7124+ 7117                      6.10094e+010        0.0000           100.00%
*  7124+ 7117                      6.09799e+010        0.0000           100.00%
*  7124+ 7117                      6.09619e+010        0.0000           100.00%
*  7124+ 7117                      6.09459e+010        0.0000           100.00%
*  7124+ 7117                      6.09244e+010        0.0000           100.00%
*  7124+ 7117                      6.08956e+010        0.0000           100.00%
*  7124+ 7117                      6.08846e+010        0.0000           100.00%
*  7124+ 7117                      6.08470e+010        0.0000           100.00%
*  7125+ 7118                      6.07480e+010        0.0000           100.00%
*  7125+ 7118                      6.06363e+010        0.0000           100.00%
*  7125+ 7118                      6.05987e+010        0.0000           100.00%
*  7142+ 7135                      6.05680e+010        0.0000           100.00%
*  7142+ 7135                      6.05670e+010        0.0000           100.00%
*  7142+ 7135                      6.05560e+010        0.0000           100.00%
*  7142+ 7135                      6.04075e+010        0.0000           100.00%
*  7142+ 7135                      6.04038e+010        0.0000           100.00%
*  7142+ 7135                      6.03534e+010        0.0000           100.00%
*  7142+ 7135                      6.03263e+010        0.0000           100.00%
*  7142+ 7135                      6.03155e+010        0.0000           100.00%
*  7142+ 7135                      6.02503e+010        0.0000           100.00%
*  7142+ 7135                      6.02359e+010        0.0000           100.00%
*  7142+ 7135                      6.02345e+010        0.0000           100.00%
*  7142+ 7135                      6.02327e+010        0.0000           100.00%
*  7142+ 7135                      6.02201e+010        0.0000           100.00%
*  7142+ 7135                      6.01985e+010        0.0000           100.00%
*  7142+ 7135                      6.01697e+010        0.0000           100.00%
   7145  7139  1.03400e+009  3068  6.01697e+010        0.0000  2104540  100.00%
*  7152+ 7145                      6.01677e+010        0.0000           100.00%
*  7152+ 7145                      6.01466e+010        0.0000           100.00%
*  7152+ 7145                      6.01397e+010        0.0000           100.00%
*  7152+ 7145                      6.01186e+010        0.0000           100.00%
*  7152+ 7145                      6.01076e+010        0.0000           100.00%
*  7152+ 7145                      6.00736e+010        0.0000           100.00%
*  7152+ 7145                      6.00557e+010        0.0000           100.00%
*  7152+ 7145                      6.00325e+010        0.0000           100.00%
*  7152+ 7145                      6.00054e+010        0.0000           100.00%
   7154  7149        0.0000  2743  6.00054e+010        0.0000  2176969  100.00%
   7155  7150        0.0000  2938  6.00054e+010        0.0000  2180708  100.00%
   7156  7150        0.0000  3156  6.00054e+010        0.0000  2183540  100.00%
   7158  7152  5.20000e+007  3025  6.00054e+010        0.0000  2187850  100.00%
   7159  7153        0.0000  3546  6.00054e+010        0.0000  2191180  100.00%
   7160  7154  5.20000e+007  3175  6.00054e+010        0.0000  2194587  100.00%
   7162  7154  1.04000e+008  3060  6.00054e+010        0.0000  2199302  100.00%
   7163  7154        0.0000  3899  6.00054e+010        0.0000  2204347  100.00%
Elapsed time = 6345.70 sec. (644173.51 ticks, tree = 1210.93 MB, solutions = 603)
   7169  7157  1.04000e+008  3278  6.00054e+010        0.0000  2239456  100.00%
   7170  7158        0.0000  3894  6.00054e+010        0.0000  2240368  100.00%
   7171  7159  5.20000e+007  3753  6.00054e+010        0.0000  2247654  100.00%
   7174  7161  1.04000e+008  3640  6.00054e+010        0.0000  2267932  100.00%
   7181  7165        0.0000  4248  6.00054e+010        0.0000  2279267  100.00%
   7185  7167  1.04000e+008  4219  6.00054e+010        0.0000  2291311  100.00%
   7189  7170  1.96000e+008  2993  6.00054e+010        0.0000  2300844  100.00%
   7191  7171  1.49000e+008  3275  6.00054e+010        0.0000  2300863  100.00%
   7193  7172  2.01000e+008  2999  6.00054e+010        0.0000  2300871  100.00%
   7196  7174  1.49000e+008  3349  6.00054e+010        0.0000  2307681  100.00%
Elapsed time = 6449.83 sec. (684660.11 ticks, tree = 1208.73 MB, solutions = 603)
   7199  7175        0.0000  4618  6.00054e+010        0.0000  2318056  100.00%
   7203  7176  1.04000e+008  4298  6.00054e+010        0.0000  2328335  100.00%
*  7212+ 4804                      5.99009e+010        0.0000           100.00%
   7212  4806  1.84000e+008  3335  5.99009e+010        0.0000  2349280  100.00%
*  7217+ 3227                      5.79995e+010        0.0000           100.00%
   7257  3249  2.01000e+008  3975  5.79995e+010        0.0000  2482780  100.00%
   7261  3251  5.20000e+007  4945  5.79995e+010        0.0000  2500224  100.00%
   7281  3266  1.04000e+008  5304  5.79995e+010        0.0000  2566432  100.00%
   7298  3276        0.0000  4952  5.79995e+010        0.0000  2630464  100.00%
   7301  3278  1.49000e+008  4678  5.79995e+010        0.0000  2641416  100.00%
   7304  3281  1.44000e+008  4984  5.79995e+010        0.0000  2660477  100.00%
   7320  3287  1.44000e+008  4067  5.79995e+010        0.0000  2702204  100.00%
Elapsed time = 7200.24 sec. (741474.61 ticks, tree = 528.76 MB, solutions = 605)
   7321  3287  1.56000e+008  4196  5.79995e+010        0.0000  2702315  100.00%
*  7324+ 2247                      5.76993e+010        0.0000           100.00%
   7324  2249  1.44000e+008  4857  5.76993e+010        0.0000  2703559  100.00%
*  7325+ 1555                      5.69644e+010        0.0000           100.00%
*  7325+ 1093                      5.66805e+010        0.0000           100.00%
   7326  1095  1.96000e+008  3007  5.66805e+010        0.0000  2703597  100.00%
   7332  1098  1.49000e+008  5254  5.66805e+010        0.0000  2729836  100.00%
   7440  1112  1.84000e+008  4592  5.66805e+010        0.0000  3198198  100.00%

GUB cover cuts applied:  122
Cover cuts applied:  14
Implied bound cuts applied:  105
Flow cuts applied:  684
Mixed integer rounding cuts applied:  112
Gomory fractional cuts applied:  5

Root node processing (before b&c):
  Real time             =  330.45 sec. (71598.93 ticks)
Parallel b&c, 32 threads:
  Real time             = 6879.01 sec. (715850.11 ticks)
  Sync time (average)   = 1560.64 sec.
  Wait time (average)   = 1568.72 sec.
                          ------------
Total (root+branch&cut) = 7209.47 sec. (787449.04 ticks)
AbortTimeLim
Value of objective function = 5.66805e+010
Items' area = 4.1862e+010
Yield = 0.738561